% demand
num_movements = 25;
loading_factor = [1750, 1800, 1750, 1750, 1250, 1600, 1100, 1650, 1650, 2000, 1400, 1450, 850, 1400, 1000, 900, 800, 1150, 2000, 1150, 900, 1200, 1100, 1150, 1750];
pickup_time = [0, 0, 0, 0, 0, 0, 0, 1, 1, 1, 1, 1, 1, 1, 2, 2, 2, 3, 3, 3, 3, 3, 3, 4, 4];
delivery_time = [1, 1, 1, 1, 1, 1, 1, 3, 2, 3, 2, 2, 2, 2, 5, 3, 5, 5, 5, 5, 5, 4, 4, 5, 5];

% transporter definition
total_capacity = 11000;
num_decks = 4;
capacity = [3000, 3000, 1000, 4000];

% ways out of decks
num_ways_out = 2;
paths_out = array3d(decks, ways_out, decks, [
% ways out of deck d1
2, 4, 0, 0, 3, 4, 0, 0, 

% ways out of deck d2
4, 0, 0, 0, 0, 0, 0, 0,	

% ways out of deck d3
4, 0, 0, 0, 0, 0, 0, 0,	

% ways out of deck d4
0, 0, 0, 0,	0, 0, 0, 0,	

]);

